NAME: Tnm118
COMMENT: Recalculated optimal tour for Tnm118, using LKH got a tour of length 1698486.0
TYPE: TOUR
DIMENSION: 118
TOUR_SECTION:
1
95
4
7
10
98
101
13
16
19
22
25
28
31
34
37
40
43
46
49
104
107
110
113
116
118
115
112
117
114
111
108
105
102
52
55
58
61
64
67
70
73
76
79
82
85
88
91
2
5
96
99
8
11
14
17
20
23
26
29
32
35
38
41
44
47
50
53
56
59
62
65
68
71
74
109
106
103
100
97
77
80
83
86
94
89
92
3
6
9
12
15
18
21
24
27
30
33
36
39
42
45
48
51
54
57
60
63
66
69
72
75
78
81
84
87
90
93
-1
EOF
